30 5
61 32 55 29 61 87 76 69 93 87 100 55 84 85 96 41 62 14 41 98 35 78 62 43 38 74 79 97 36 48
47 43 56 26 74 83 58 79 86 95 92 80 96 95 75 36 71 25 35 98 39 89 50 55 45 75 91 102 35 49
51 33 56 21 66 97 79 74 111 86 95 72 90 86 71 50 75 29 34 80 20 91 36 41 21 93 87 90 29 42
67 41 46 22 73 81 88 57 101 78 81 71 104 107 91 51 77 36 46 87 23 78 36 31 23 85 86 81 23 59
42 35 61 30 68 88 61 64 115 70 84 68 100 95 76 49 55 9 45 72 38 74 44 44 41 81 78 77 40 56
